Route #1: 63 145 142 148 87 150 141 135 143 109 144
Route #2: 108 44 107 65 93 88 40 136 13 67 134 55 47
Route #3: 17 147 137 92 42 64 19 94 41 66 111 149 4 146 56
Route #4: 5 103 12
Route #5: 90 71 123 122 124 125 106 73 33 72 91 45 15 52 37
Route #6: 76 49 10 54 39 89 117 75 105 30 104 9 38
Route #7: 78 126 16 127 53 21 79 74 34 130 50 118 62
Route #8: 32 51 22 101 3 59 20 131 83 2 100 11
Route #9: 119 1 120 80 70 28 116 121 115 36 85 35 84 128 29 129
Route #10: 77 81 60 8 31 82 140 113 26 112 48 138 27
Route #11: 68 14 96 24 97 86 43 99 114 61 7 69 23 57 46
Route #12: 102 6 132 98 58 95 25 133 110 18 139
Cost 1028.42
